nN = 8;
nR = 40;
nH = 2;

a = [[15, 22, 24, 17, 15, 16, 23, 24, 16, 20, 25, 18, 21, 15, 19, 25, 16, 15, 16, 24, 17, 16, 22, 18, 15, 15, 16, 15, 17, 19, 19, 20, 15, 19, 23, 21, 23, 16, 19, 16], [18, 20, 25, 17, 22, 22, 18, 22, 20, 23, 16, 21, 21, 24, 21, 25, 21, 20, 16, 17, 22, 18, 18, 22, 15, 16, 16, 16, 17, 25, 19, 20, 21, 15, 21, 25, 18, 24, 24, 21], [20, 17, 22, 16, 24, 23, 18, 22, 19, 20, 25, 19, 21, 25, 18, 24, 24, 17, 15, 17, 21, 16, 25, 16, 18, 21, 22, 23, 21, 20, 15, 23, 23, 25, 23, 19, 19, 22, 21, 17], [17, 24, 25, 21, 21, 22, 16, 20, 15, 15, 24, 21, 16, 20, 24, 19, 18, 21, 21, 17, 20, 16, 25, 21, 15, 25, 18, 16, 15, 23, 15, 20, 16, 23, 21, 20, 21, 25, 17, 25], [25, 25, 25, 21, 17, 25, 16, 23, 17, 19, 16, 25, 22, 23, 21, 25, 22, 25, 20, 22, 22, 17, 19, 24, 22, 18, 16, 17, 25, 17, 25, 16, 17, 21, 19, 16, 19, 16, 21, 20], [16, 19, 18, 23, 16, 18, 19, 20, 15, 16, 21, 24, 15, 20, 19, 24, 21, 15, 24, 16, 23, 20, 20, 22, 15, 17, 19, 17, 20, 24, 24, 19, 19, 23, 24, 25, 22, 18, 21, 21], [19, 21, 20, 16, 15, 17, 19, 18, 23, 16, 25, 24, 20, 17, 18, 23, 24, 23, 16, 17, 19, 20, 16, 21, 17, 15, 21, 22, 18, 21, 20, 18, 19, 20, 25, 25, 15, 20, 19, 15], [18, 24, 21, 24, 16, 25, 21, 23, 24, 24, 25, 21, 20, 18, 15, 25, 22, 22, 24, 20, 15, 17, 20, 23, 23, 17, 20, 15, 17, 19, 22, 18, 16, 22, 18, 22, 22, 22, 23, 23]];
c = [[[0, 0, 0, 0, 0, 0, 0, 0, 0, 0, 0, 0, 0, 0, 0, 0, 0, 0, 0, 0, 0, 0, 0, 0, 0, 0, 0, 0, 0, 0, 0, 0, 0, 0, 0, 0, 0, 0, 0, 0], [40, 36, 37, 40, 38, 47, 44, 43, 35, 31, 35, 37, 41, 30, 36, 36, 30, 48, 35, 50, 44, 38, 36, 44, 50, 42, 34, 42, 46, 42, 32, 34, 38, 39, 34, 45, 40, 43, 42, 31], [31, 49, 43, 42, 39, 32, 41, 30, 50, 47, 44, 30, 32, 44, 37, 30, 49, 47, 39, 38, 33, 30, 35, 38, 36, 50, 43, 48, 41, 35, 40, 49, 33, 30, 43, 35, 45, 34, 38, 34], [48, 38, 39, 30, 32, 38, 41, 32, 33, 44, 37, 49, 39, 37, 39, 37, 44, 50, 43, 47, 40, 31, 34, 46, 39, 34, 32, 38, 37, 31, 36, 37, 40, 33, 30, 45, 48, 36, 32, 34], [45, 31, 45, 36, 40, 40, 50, 35, 31, 33, 36, 49, 30, 40, 33, 30, 45, 35, 44, 32, 43, 36, 50, 33, 32, 41, 47, 36, 31, 43, 48, 39, 46, 43, 47, 47, 39, 46, 35, 46], [42, 47, 38, 50, 31, 43, 45, 30, 37, 43, 50, 39, 42, 32, 44, 37, 34, 33, 34, 35, 38, 42, 39, 38, 37, 42, 33, 40, 38, 49, 42, 38, 42, 49, 47, 46, 50, 47, 47, 50], [44, 50, 46, 38, 34, 39, 32, 47, 31, 41, 50, 43, 37, 47, 41, 42, 32, 44, 49, 43, 50, 39, 40, 32, 41, 41, 48, 41, 30, 38, 33, 30, 47, 45, 34, 45, 31, 35, 40, 46], [38, 48, 39, 42, 35, 48, 33, 39, 45, 31, 39, 40, 47, 36, 36, 35, 38, 42, 37, 34, 37, 49, 50, 44, 30, 44, 43, 46, 49, 47, 42, 39, 31, 47, 38, 48, 39, 48, 31, 41]], [[0, 0, 0, 0, 0, 0, 0, 0, 0, 0, 0, 0, 0, 0, 0, 0, 0, 0, 0, 0, 0, 0, 0, 0, 0, 0, 0, 0, 0, 0, 0, 0, 0, 0, 0, 0, 0, 0, 0, 0], [0, 0, 0, 0, 0, 0, 0, 0, 0, 0, 0, 0, 0, 0, 0, 0, 0, 0, 0, 0, 0, 0, 0, 0, 0, 0, 0, 0, 0, 0, 0, 0, 0, 0, 0, 0, 0, 0, 0, 0], [45, 40, 50, 39, 33, 44, 41, 46, 35, 48, 46, 48, 46, 47, 31, 36, 39, 39, 32, 46, 32, 41, 46, 46, 37, 31, 37, 50, 45, 32, 32, 48, 35, 30, 33, 31, 49, 40, 40, 42], [30, 30, 33, 37, 30, 47, 36, 37, 36, 47, 36, 30, 32, 46, 46, 50, 41, 45, 38, 40, 48, 45, 37, 46, 43, 35, 50, 41, 36, 33, 36, 32, 48, 30, 42, 37, 41, 30, 44, 32], [35, 36, 31, 50, 35, 32, 40, 45, 30, 46, 33, 35, 41, 33, 39, 36, 47, 39, 34, 40, 41, 35, 41, 35, 46, 43, 50, 49, 35, 35, 45, 34, 34, 34, 40, 46, 44, 35, 47, 45], [48, 36, 46, 42, 31, 32, 41, 35, 42, 43, 50, 48, 34, 38, 48, 45, 40, 40, 45, 40, 48, 36, 39, 48, 40, 49, 39, 43, 50, 35, 42, 39, 38, 44, 34, 42, 36, 42, 36, 43], [33, 50, 32, 42, 40, 34, 39, 33, 49, 39, 33, 31, 43, 44, 33, 36, 39, 43, 42, 40, 42, 44, 42, 42, 39, 42, 42, 41, 40, 30, 50, 43, 40, 43, 40, 45, 35, 46, 36, 49], [44, 31, 36, 43, 47, 38, 38, 40, 40, 44, 39, 49, 30, 43, 44, 42, 38, 35, 30, 32, 43, 46, 40, 42, 32, 36, 33, 43, 44, 42, 46, 49, 44, 35, 44, 39, 44, 42, 50, 33]], [[0, 0, 0, 0, 0, 0, 0, 0, 0, 0, 0, 0, 0, 0, 0, 0, 0, 0, 0, 0, 0, 0, 0, 0, 0, 0, 0, 0, 0, 0, 0, 0, 0, 0, 0, 0, 0, 0, 0, 0], [0, 0, 0, 0, 0, 0, 0, 0, 0, 0, 0, 0, 0, 0, 0, 0, 0, 0, 0, 0, 0, 0, 0, 0, 0, 0, 0, 0, 0, 0, 0, 0, 0, 0, 0, 0, 0, 0, 0, 0], [0, 0, 0, 0, 0, 0, 0, 0, 0, 0, 0, 0, 0, 0, 0, 0, 0, 0, 0, 0, 0, 0, 0, 0, 0, 0, 0, 0, 0, 0, 0, 0, 0, 0, 0, 0, 0, 0, 0, 0], [36, 38, 31, 43, 44, 33, 43, 32, 48, 47, 45, 34, 38, 30, 41, 33, 37, 35, 37, 36, 48, 30, 41, 49, 48, 50, 50, 39, 46, 39, 48, 39, 46, 35, 49, 32, 41, 45, 45, 44], [43, 38, 30, 38, 30, 30, 48, 40, 47, 42, 30, 30, 44, 36, 30, 41, 42, 31, 43, 43, 30, 46, 45, 39, 48, 46, 37, 41, 44, 35, 48, 50, 33, 44, 35, 37, 39, 36, 33, 46], [43, 41, 44, 31, 32, 31, 36, 45, 40, 41, 36, 31, 33, 44, 34, 48, 45, 30, 48, 31, 48, 49, 42, 39, 30, 30, 38, 39, 43, 35, 33, 45, 47, 48, 32, 50, 47, 36, 35, 32], [44, 39, 46, 43, 35, 33, 41, 45, 44, 39, 32, 43, 45, 40, 44, 30, 43, 49, 49, 50, 36, 49, 32, 30, 39, 46, 43, 49, 40, 41, 47, 40, 47, 41, 30, 47, 36, 38, 37, 46], [48, 42, 48, 49, 31, 31, 37, 48, 44, 33, 50, 45, 50, 42, 33, 47, 36, 45, 33, 38, 36, 38, 44, 35, 39, 46, 30, 37, 44, 32, 36, 45, 44, 37, 49, 49, 50, 42, 47, 48]], [[0, 0, 0, 0, 0, 0, 0, 0, 0, 0, 0, 0, 0, 0, 0, 0, 0, 0, 0, 0, 0, 0, 0, 0, 0, 0, 0, 0, 0, 0, 0, 0, 0, 0, 0, 0, 0, 0, 0, 0], [0, 0, 0, 0, 0, 0, 0, 0, 0, 0, 0, 0, 0, 0, 0, 0, 0, 0, 0, 0, 0, 0, 0, 0, 0, 0, 0, 0, 0, 0, 0, 0, 0, 0, 0, 0, 0, 0, 0, 0], [0, 0, 0, 0, 0, 0, 0, 0, 0, 0, 0, 0, 0, 0, 0, 0, 0, 0, 0, 0, 0, 0, 0, 0, 0, 0, 0, 0, 0, 0, 0, 0, 0, 0, 0, 0, 0, 0, 0, 0], [0, 0, 0, 0, 0, 0, 0, 0, 0, 0, 0, 0, 0, 0, 0, 0, 0, 0, 0, 0, 0, 0, 0, 0, 0, 0, 0, 0, 0, 0, 0, 0, 0, 0, 0, 0, 0, 0, 0, 0], [45, 33, 49, 46, 41, 35, 50, 43, 37, 34, 49, 48, 45, 38, 40, 46, 40, 35, 41, 43, 31, 36, 44, 39, 44, 50, 39, 43, 37, 40, 36, 35, 31, 40, 42, 35, 40, 39, 42, 35], [40, 36, 41, 43, 46, 35, 33, 42, 33, 34, 37, 40, 32, 32, 33, 49, 33, 47, 43, 49, 46, 31, 42, 31, 32, 46, 40, 40, 34, 30, 48, 34, 49, 44, 46, 49, 47, 41, 31, 32], [43, 39, 40, 39, 32, 48, 49, 31, 32, 50, 39, 44, 41, 30, 49, 44, 39, 42, 45, 41, 36, 42, 42, 30, 33, 33, 47, 43, 39, 35, 48, 48, 32, 41, 42, 30, 34, 37, 43, 30], [35, 36, 45, 32, 40, 37, 47, 46, 36, 36, 48, 48, 46, 49, 32, 44, 39, 36, 35, 36, 33, 46, 37, 30, 38, 31, 40, 44, 44, 43, 38, 47, 38, 39, 33, 43, 42, 34, 33, 38]], [[0, 0, 0, 0, 0, 0, 0, 0, 0, 0, 0, 0, 0, 0, 0, 0, 0, 0, 0, 0, 0, 0, 0, 0, 0, 0, 0, 0, 0, 0, 0, 0, 0, 0, 0, 0, 0, 0, 0, 0], [0, 0, 0, 0, 0, 0, 0, 0, 0, 0, 0, 0, 0, 0, 0, 0, 0, 0, 0, 0, 0, 0, 0, 0, 0, 0, 0, 0, 0, 0, 0, 0, 0, 0, 0, 0, 0, 0, 0, 0], [0, 0, 0, 0, 0, 0, 0, 0, 0, 0, 0, 0, 0, 0, 0, 0, 0, 0, 0, 0, 0, 0, 0, 0, 0, 0, 0, 0, 0, 0, 0, 0, 0, 0, 0, 0, 0, 0, 0, 0], [0, 0, 0, 0, 0, 0, 0, 0, 0, 0, 0, 0, 0, 0, 0, 0, 0, 0, 0, 0, 0, 0, 0, 0, 0, 0, 0, 0, 0, 0, 0, 0, 0, 0, 0, 0, 0, 0, 0, 0], [0, 0, 0, 0, 0, 0, 0, 0, 0, 0, 0, 0, 0, 0, 0, 0, 0, 0, 0, 0, 0, 0, 0, 0, 0, 0, 0, 0, 0, 0, 0, 0, 0, 0, 0, 0, 0, 0, 0, 0], [50, 49, 44, 32, 36, 49, 40, 35, 30, 39, 45, 40, 47, 32, 33, 35, 33, 50, 46, 40, 47, 47, 45, 41, 33, 32, 42, 31, 31, 50, 46, 36, 39, 38, 40, 31, 50, 33, 41, 46], [36, 41, 46, 31, 41, 47, 39, 31, 50, 35, 39, 38, 30, 33, 45, 41, 38, 30, 32, 47, 35, 30, 39, 44, 37, 50, 33, 43, 43, 43, 43, 41, 43, 37, 47, 39, 36, 45, 36, 33], [43, 30, 49, 38, 33, 44, 36, 46, 39, 46, 44, 33, 37, 41, 30, 35, 41, 41, 46, 41, 49, 42, 45, 38, 33, 39, 48, 36, 44, 46, 38, 30, 35, 31, 33, 46, 47, 40, 46, 34]], [[0, 0, 0, 0, 0, 0, 0, 0, 0, 0, 0, 0, 0, 0, 0, 0, 0, 0, 0, 0, 0, 0, 0, 0, 0, 0, 0, 0, 0, 0, 0, 0, 0, 0, 0, 0, 0, 0, 0, 0], [0, 0, 0, 0, 0, 0, 0, 0, 0, 0, 0, 0, 0, 0, 0, 0, 0, 0, 0, 0, 0, 0, 0, 0, 0, 0, 0, 0, 0, 0, 0, 0, 0, 0, 0, 0, 0, 0, 0, 0], [0, 0, 0, 0, 0, 0, 0, 0, 0, 0, 0, 0, 0, 0, 0, 0, 0, 0, 0, 0, 0, 0, 0, 0, 0, 0, 0, 0, 0, 0, 0, 0, 0, 0, 0, 0, 0, 0, 0, 0], [0, 0, 0, 0, 0, 0, 0, 0, 0, 0, 0, 0, 0, 0, 0, 0, 0, 0, 0, 0, 0, 0, 0, 0, 0, 0, 0, 0, 0, 0, 0, 0, 0, 0, 0, 0, 0, 0, 0, 0], [0, 0, 0, 0, 0, 0, 0, 0, 0, 0, 0, 0, 0, 0, 0, 0, 0, 0, 0, 0, 0, 0, 0, 0, 0, 0, 0, 0, 0, 0, 0, 0, 0, 0, 0, 0, 0, 0, 0, 0], [0, 0, 0, 0, 0, 0, 0, 0, 0, 0, 0, 0, 0, 0, 0, 0, 0, 0, 0, 0, 0, 0, 0, 0, 0, 0, 0, 0, 0, 0, 0, 0, 0, 0, 0, 0, 0, 0, 0, 0], [42, 36, 50, 45, 45, 40, 38, 43, 37, 38, 33, 42, 34, 34, 48, 30, 30, 34, 42, 33, 34, 50, 39, 50, 49, 44, 45, 36, 36, 45, 44, 40, 47, 33, 41, 38, 43, 42, 32, 45], [37, 46, 47, 41, 35, 46, 42, 50, 34, 48, 30, 39, 41, 37, 41, 35, 30, 35, 31, 44, 41, 36, 49, 38, 44, 44, 32, 46, 41, 36, 30, 49, 43, 41, 47, 45, 36, 43, 32, 45]], [[0, 0, 0, 0, 0, 0, 0, 0, 0, 0, 0, 0, 0, 0, 0, 0, 0, 0, 0, 0, 0, 0, 0, 0, 0, 0, 0, 0, 0, 0, 0, 0, 0, 0, 0, 0, 0, 0, 0, 0], [0, 0, 0, 0, 0, 0, 0, 0, 0, 0, 0, 0, 0, 0, 0, 0, 0, 0, 0, 0, 0, 0, 0, 0, 0, 0, 0, 0, 0, 0, 0, 0, 0, 0, 0, 0, 0, 0, 0, 0], [0, 0, 0, 0, 0, 0, 0, 0, 0, 0, 0, 0, 0, 0, 0, 0, 0, 0, 0, 0, 0, 0, 0, 0, 0, 0, 0, 0, 0, 0, 0, 0, 0, 0, 0, 0, 0, 0, 0, 0], [0, 0, 0, 0, 0, 0, 0, 0, 0, 0, 0, 0, 0, 0, 0, 0, 0, 0, 0, 0, 0, 0, 0, 0, 0, 0, 0, 0, 0, 0, 0, 0, 0, 0, 0, 0, 0, 0, 0, 0], [0, 0, 0, 0, 0, 0, 0, 0, 0, 0, 0, 0, 0, 0, 0, 0, 0, 0, 0, 0, 0, 0, 0, 0, 0, 0, 0, 0, 0, 0, 0, 0, 0, 0, 0, 0, 0, 0, 0, 0], [0, 0, 0, 0, 0, 0, 0, 0, 0, 0, 0, 0, 0, 0, 0, 0, 0, 0, 0, 0, 0, 0, 0, 0, 0, 0, 0, 0, 0, 0, 0, 0, 0, 0, 0, 0, 0, 0, 0, 0], [0, 0, 0, 0, 0, 0, 0, 0, 0, 0, 0, 0, 0, 0, 0, 0, 0, 0, 0, 0, 0, 0, 0, 0, 0, 0, 0, 0, 0, 0, 0, 0, 0, 0, 0, 0, 0, 0, 0, 0], [42, 45, 50, 45, 40, 38, 38, 48, 34, 47, 42, 30, 39, 35, 41, 30, 31, 33, 38, 44, 33, 40, 42, 31, 42, 44, 38, 45, 44, 32, 41, 42, 38, 33, 47, 40, 36, 48, 50, 49]], [[0, 0, 0, 0, 0, 0, 0, 0, 0, 0, 0, 0, 0, 0, 0, 0, 0, 0, 0, 0, 0, 0, 0, 0, 0, 0, 0, 0, 0, 0, 0, 0, 0, 0, 0, 0, 0, 0, 0, 0], [0, 0, 0, 0, 0, 0, 0, 0, 0, 0, 0, 0, 0, 0, 0, 0, 0, 0, 0, 0, 0, 0, 0, 0, 0, 0, 0, 0, 0, 0, 0, 0, 0, 0, 0, 0, 0, 0, 0, 0], [0, 0, 0, 0, 0, 0, 0, 0, 0, 0, 0, 0, 0, 0, 0, 0, 0, 0, 0, 0, 0, 0, 0, 0, 0, 0, 0, 0, 0, 0, 0, 0, 0, 0, 0, 0, 0, 0, 0, 0], [0, 0, 0, 0, 0, 0, 0, 0, 0, 0, 0, 0, 0, 0, 0, 0, 0, 0, 0, 0, 0, 0, 0, 0, 0, 0, 0, 0, 0, 0, 0, 0, 0, 0, 0, 0, 0, 0, 0, 0], [0, 0, 0, 0, 0, 0, 0, 0, 0, 0, 0, 0, 0, 0, 0, 0, 0, 0, 0, 0, 0, 0, 0, 0, 0, 0, 0, 0, 0, 0, 0, 0, 0, 0, 0, 0, 0, 0, 0, 0], [0, 0, 0, 0, 0, 0, 0, 0, 0, 0, 0, 0, 0, 0, 0, 0, 0, 0, 0, 0, 0, 0, 0, 0, 0, 0, 0, 0, 0, 0, 0, 0, 0, 0, 0, 0, 0, 0, 0, 0], [0, 0, 0, 0, 0, 0, 0, 0, 0, 0, 0, 0, 0, 0, 0, 0, 0, 0, 0, 0, 0, 0, 0, 0, 0, 0, 0, 0, 0, 0, 0, 0, 0, 0, 0, 0, 0, 0, 0, 0], [0, 0, 0, 0, 0, 0, 0, 0, 0, 0, 0, 0, 0, 0, 0, 0, 0, 0, 0, 0, 0, 0, 0, 0, 0, 0, 0, 0, 0, 0, 0, 0, 0, 0, 0, 0, 0, 0, 0, 0]]];

q = [[[23, 115], [19, 119], [6, 121], [12, 120], [18, 113], [17, 120], [5, 110], [12, 121], [7, 119], [11, 112], [12, 109], [15, 107], [21, 120], [16, 112], [19, 105], [11, 115], [23, 112], [7, 109], [11, 111], [13, 121], [10, 109], [24, 112], [8, 108], [16, 114], [14, 117], [8, 108], [20, 123], [18, 121], [16, 125], [25, 114], [12, 122], [21, 119], [12, 122], [20, 117], [20, 124], [8, 125], [10, 125], [5, 118], [14, 120], [6, 125]], [[8, 118], [9, 125], [10, 117], [7, 107], [17, 118], [20, 120], [10, 112], [8, 109], [23, 120], [18, 108], [9, 111], [18, 125], [23, 105], [8, 112], [7, 107], [20, 119], [10, 122], [21, 105], [18, 105], [19, 125], [10, 107], [8, 112], [10, 107], [6, 113], [23, 109], [7, 117], [6, 109], [17, 120], [24, 116], [22, 118], [22, 115], [9, 113], [21, 108], [17, 108], [8, 113], [6, 108], [16, 124], [21, 114], [10, 115], [14, 117]], [[7, 125], [22, 115], [11, 105], [19, 113], [13, 115], [10, 106], [21, 120], [14, 108], [21, 111], [7, 125], [21, 121], [19, 110], [24, 117], [10, 110], [9, 114], [11, 121], [11, 105], [25, 117], [22, 112], [16, 124], [18, 107], [25, 107], [16, 107], [8, 125], [16, 117], [18, 105], [10, 122], [17, 121], [17, 124], [21, 107], [23, 109], [17, 123], [15, 108], [20, 124], [10, 117], [16, 106], [24, 115], [14, 121], [13, 125], [12, 117]], [[8, 113], [11, 108], [24, 123], [20, 122], [9, 108], [8, 114], [24, 112], [22, 123], [18, 119], [19, 105], [12, 125], [12, 105], [5, 121], [12, 113], [19, 121], [13, 123], [14, 116], [16, 110], [6, 121], [10, 121], [18, 117], [20, 119], [9, 114], [7, 120], [21, 112], [17, 116], [14, 107], [15, 111], [20, 106], [19, 111], [19, 113], [20, 109], [25, 116], [23, 125], [10, 120], [13, 122], [13, 118], [23, 124], [12, 108], [8, 108]], [[9, 115], [8, 119], [23, 119], [14, 122], [11, 116], [9, 118], [7, 114], [25, 124], [25, 123], [16, 116], [14, 117], [8, 112], [24, 123], [11, 121], [15, 121], [22, 119], [7, 122], [17, 107], [10, 121], [20, 116], [25, 120], [11, 116], [5, 116], [16, 108], [12, 124], [12, 122], [17, 105], [21, 122], [14, 112], [14, 117], [6, 120], [23, 114], [22, 120], [9, 122], [6, 114], [8, 123], [14, 123], [8, 116], [15, 108], [23, 111]], [[16, 115], [25, 118], [5, 105], [21, 114], [23, 106], [5, 109], [9, 106], [7, 115], [21, 109], [19, 118], [24, 124], [6, 122], [25, 108], [9, 111], [11, 106], [7, 109], [17, 113], [20, 111], [24, 117], [17, 106], [8, 116], [13, 119], [23, 112], [23, 123], [21, 111], [11, 113], [17, 118], [10, 111], [22, 118], [13, 114], [7, 117], [5, 122], [11, 122], [21, 124], [21, 105], [12, 108], [16, 120], [11, 109], [15, 114], [14, 125]], [[16, 105], [11, 106], [12, 105], [10, 116], [21, 118], [9, 105], [24, 125], [20, 118], [19, 113], [18, 112], [6, 112], [20, 108], [21, 121], [9, 124], [15, 105], [24, 117], [13, 114], [25, 106], [18, 115], [6, 111], [18, 113], [6, 123], [19, 114], [11, 120], [12, 105], [6, 124], [20, 121], [5, 125], [8, 105], [18, 121], [15, 123], [21, 111], [15, 112], [23, 112], [14, 112], [17, 116], [15, 112], [6, 106], [25, 117], [16, 115]], [[8, 117], [19, 105], [23, 106], [9, 118], [12, 121], [6, 107], [22, 116], [14, 110], [12, 107], [23, 115], [7, 109], [19, 120], [16, 112], [5, 108], [16, 106], [6, 112], [18, 121], [11, 123], [9, 113], [15, 110], [18, 105], [8, 105], [17, 123], [18, 115], [5, 125], [7, 125], [15, 114], [6, 125], [13, 105], [12, 121], [5, 113], [10, 107], [22, 121], [23, 118], [17, 117], [11, 106], [19, 107], [18, 116], [6, 124], [11, 123]]];
Q = [[56, 466], [56, 456], [64, 461], [60, 462], [57, 470], [60, 457], [60, 457], [53, 458]];
